networks/zoo_80_1248/zoo_80_1248.txt
Number of groups: 52
Flow 7: {5 9} {9 49} 
Flow 17: {4 20} {20 60} 
Flow 232: {7 8} {8 26} {26 66} 
Flow 238: {8 7} {7 5} {5 3} {3 43} 
Flow 248: {13 14} 
Flow 256: {29 28} {28 22} {22 62} 
Flow 313: {10 9} {9 8} {8 48} 
Flow 369: {11 4} {4 31} {31 40} {40 80} 
Flow 375: {12 14} {14 23} {23 63} 
Flow 427: {14 13} {13 16} {16 10} {10 50} 
Flow 431: {14 15} 
Flow 445: {16 30} {30 70} 
Flow 466: {23 24} {24 6} {6 4} {4 11} {11 51} 
Flow 467: {15 14} {14 12} {12 52} 
Flow 475: {15 13} {13 21} {21 61} 
Flow 482: {13 23} {23 28} {28 68} 
Flow 552: {17 5} {5 32} {32 72} 
Flow 554: {17 35} {35 75} 
Flow 560: {18 5} {5 1} {1 41} 
Flow 584: {18 31} 
Flow 593: {19 10} {10 16} {16 13} {13 53} 
Flow 614: {20 4} {4 5} {5 7} {7 47} 
Flow 637: {22 28} {28 29} {29 30} {30 5} {5 45} 
Flow 700: {6 5} {5 17} 
Flow 706: {24 30} {30 10} {10 26} {26 25} {25 65} 
Flow 723: {25 35} {35 1} {1 2} {2 42} 
Flow 724: {26 9} {9 5} {5 4} {4 44} 
Flow 737: {30 24} {24 23} {23 27} {27 67} 
Flow 738: {25 26} {26 10} {10 30} {30 29} {29 69} 
Flow 743: {1 3} {3 36} 
Flow 764: {26 8} {8 35} {35 17} {17 57} 
Flow 796: {27 23} {23 14} {14 54} 
Flow 831: {28 23} {23 13} {13 15} {15 55} 
Flow 945: {31 4} {4 6} {6 24} {24 64} 
Flow 947: {9 26} 
Flow 966: {32 5} {5 6} {6 46} 
Flow 991: {32 3} {3 33} 
Flow 1020: {33 3} {3 32} 
Flow 1021: {33 35} {35 34} 
Flow 1042: {34 2} {2 1} {1 5} {5 18} {18 58} 
Flow 1043: {35 8} {8 9} {9 10} {10 19} {19 59} 
Flow 1054: {34 35} {35 33} {33 73} 
Flow 1128: {36 3} {3 1} {1 31} {31 71} 
Flow 1131: {2 34} {34 74} 
Flow 1133: {36 37} {37 77} 
Flow 1173: {37 3} {3 39} {39 40} 
Flow 1182: {3 5} {5 30} {30 16} {16 56} 
Flow 1191: {38 37} {37 36} {36 76} 
Flow 1232: {40 31} {31 18} 
Flow 1235: {31 1} {1 35} {35 25} 
Flow 1247: {39 3} {3 37} {37 38} {38 78} 
Flow 1248: {40 39} {39 79} 
Time taken running everything: 291 seconds
