networks/zoo_80_1248/zoo_80_1248.sol
<?xml version = "1.0" encoding="UTF-8" standalone="yes"?>
<CPLEXSolution version="1.2">
 <header
   problemName="networks/zoo_80_1248/zoo_80_1248.lp"
   solutionName="incumbent"
   solutionIndex="-1"
   objectiveValue="52"
   solutionTypeValue="3"
   solutionTypeString="primal"
   solutionStatusValue="101"
   solutionStatusString="integer optimal solution"
   solutionMethodString="mip"
   primalFeasible="1"
   dualFeasible="1"
   MIPNodes="0"
   MIPIterations="85429"
   writeLevel="3"/>
 <quality
   epInt="1.0000000000000001e-05"
   epRHS="9.9999999999999995e-07"
   maxIntInfeas="1.8040162006982452e-13"
   maxPrimalInfeas="7.7937656328685989e-13"
   maxX="4.0000000000000009"
   maxSlack="10"/>
 <variables>
  <variable name="Y(103,31)" index="8190" value="1"/>
  <variable name="Y(232,26)" index="18505" value="1"/>
  <variable name="Y(236,1)" index="18800" value="1"/>
  <variable name="Y(239,4)" index="19043" value="1"/>
  <variable name="Y(253,19)" index="20178" value="1"/>
  <variable name="Y(359,9)" index="28648" value="1"/>
  <variable name="Y(375,23)" index="29942" value="1"/>
  <variable name="Y(431,15)" index="34414" value="1"/>
  <variable name="Y(437,21)" index="34900" value="1"/>
  <variable name="Y(447,32)" index="35711" value="1"/>
  <variable name="Y(449,35)" index="35874" value="1"/>
  <variable name="Y(467,12)" index="37291" value="1"/>
  <variable name="Y(476,22)" index="38021" value="1"/>
  <variable name="Y(547,35)" index="43714" value="1"/>
  <variable name="Y(558,39)" index="44598" value="1"/>
  <variable name="Y(570,16)" index="45535" value="1"/>
  <variable name="Y(584,18)" index="46657" value="1"/>
  <variable name="Y(600,29)" index="47948" value="1.0000000000001084"/>
  <variable name="Y(603,33)" index="48192" value="1"/>
  <variable name="Y(621,24)" index="49623" value="1"/>
  <variable name="Y(635,2)" index="50721" value="1"/>
  <variable name="Y(641,13)" index="51212" value="1"/>
  <variable name="Y(677,34)" index="54113" value="1"/>
  <variable name="Y(698,13)" index="55772" value="1"/>
  <variable name="Y(703,20)" index="56179" value="1"/>
  <variable name="Y(721,31)" index="57630" value="1"/>
  <variable name="Y(727,8)" index="58087" value="1"/>
  <variable name="Y(741,35)" index="59234" value="1"/>
  <variable name="Y(761,14)" index="60813" value="1"/>
  <variable name="Y(765,18)" index="61137" value="1"/>
  <variable name="Y(773,27)" index="61786" value="1"/>
  <variable name="Y(774,28)" index="61867" value="1"/>
  <variable name="Y(790,5)" index="63124" value="1"/>
  <variable name="Y(804,25)" index="64264" value="1"/>
  <variable name="Y(806,29)" index="64428" value="-1.0824674490095276e-13"/>
  <variable name="Y(807,30)" index="64509" value="1"/>
  <variable name="Y(826,10)" index="66009" value="1"/>
  <variable name="Y(830,23)" index="66342" value="1"/>
  <variable name="Y(932,11)" index="74490" value="1"/>
  <variable name="Y(952,3)" index="76082" value="1"/>
  <variable name="Y(963,3)" index="76962" value="1"/>
  <variable name="Y(967,7)" index="77286" value="1"/>
  <variable name="Y(1010,35)" index="80754" value="1"/>
  <variable name="Y(1025,38)" index="81957" value="1"/>
  <variable name="Y(1027,40)" index="82119" value="1"/>
  <variable name="Y(1032,6)" index="82485" value="1"/>
  <variable name="Y(1035,9)" index="82728" value="1"/>
  <variable name="Y(1115,17)" index="89136" value="1"/>
  <variable name="Y(1133,37)" index="90596" value="1"/>
  <variable name="Y(1190,35)" index="95154" value="1"/>
  <variable name="Y(1191,36)" index="95235" value="1"/>
  <variable name="Y(1232,31)" index="98510" value="1"/>
  <variable name="Y(1245,3)" index="99522" value="1"/>
  <variable name="X(1,2,635)" index="100474" value="1"/>
  <variable name="X(1,3,952)" index="102039" value="1"/>
  <variable name="X(1,5,1032)" index="103367" value="1"/>
  <variable name="X(1,31,103)" index="103686" value="1"/>
  <variable name="X(1,35,1190)" index="106021" value="1"/>
  <variable name="X(1,41,236)" index="106315" value="1"/>
  <variable name="X(2,1,1032)" index="108359" value="1"/>
  <variable name="X(2,34,677)" index="109252" value="1"/>
  <variable name="X(2,42,635)" index="110458" value="1"/>
  <variable name="X(3,1,1190)" index="112261" value="1"/>
  <variable name="X(3,5,1115)" index="113434" value="1"/>
  <variable name="X(3,32,952)" index="114519" value="1"/>
  <variable name="X(3,33,603)" index="115418" value="1"/>
  <variable name="X(3,36,1245)" index="117308" value="1"/>
  <variable name="X(3,37,1025)" index="118336" value="1"/>
  <variable name="X(3,39,558)" index="119117" value="1"/>
  <variable name="X(3,43,963)" index="120770" value="1"/>
  <variable name="X(4,5,359)" index="121414" value="1"/>
  <variable name="X(4,6,621)" index="122924" value="1"/>
  <variable name="X(4,11,932)" index="124483" value="1"/>
  <variable name="X(4,20,703)" index="125502" value="1"/>
  <variable name="X(4,31,721)" index="126768" value="1"/>
  <variable name="X(4,44,239)" index="127534" value="1"/>
  <variable name="X(5,1,635)" index="129178" value="1"/>
  <variable name="X(5,3,558)" index="130349" value="1"/>
  <variable name="X(5,4,239)" index="131278" value="1"/>
  <variable name="X(5,6,1032)" index="133319" value="1"/>
  <variable name="X(5,7,967)" index="134502" value="1"/>
  <variable name="X(5,9,359)" index="135142" value="1"/>
  <variable name="X(5,17,1115)" index="137146" value="1"/>
  <variable name="X(5,18,765)" index="138044" value="1"/>
  <variable name="X(5,30,570)" index="139097" value="1"/>
  <variable name="X(5,32,447)" index="140222" value="1"/>
  <variable name="X(5,45,790)" index="141813" value="1"/>
  <variable name="X(6,4,703)" index="142974" value="1"/>
  <variable name="X(6,5,790)" index="144309" value="1"/>
  <variable name="X(6,24,621)" index="145388" value="1"/>
  <variable name="X(6,24,1184)" index="145951" value="1.5587531265737198e-13"/>
  <variable name="X(6,24,1234)" index="146001" value="-1.5587531265737198e-13"/>
  <variable name="X(6,46,1032)" index="147047" value="1"/>
  <variable name="X(7,5,239)" index="147502" value="1"/>
  <variable name="X(7,8,232)" index="148743" value="1"/>
  <variable name="X(7,47,967)" index="150726" value="1"/>
  <variable name="X(8,7,239)" index="151246" value="1"/>
  <variable name="X(8,9,1035)" index="153290" value="1"/>
  <variable name="X(8,26,232)" index="153735" value="1"/>
  <variable name="X(8,35,449)" index="155200" value="1"/>
  <variable name="X(8,48,727)" index="156726" value="1"/>
  <variable name="X(9,5,765)" index="158012" value="1"/>
  <variable name="X(9,8,449)" index="158944" value="1"/>
  <variable name="X(9,10,253)" index="159996" value="1"/>
  <variable name="X(9,26,359)" index="161350" value="1"/>
  <variable name="X(9,49,1035)" index="163274" value="1"/>
  <variable name="X(10,9,449)" index="163936" value="1"/>
  <variable name="X(10,16,761)" index="165496" value="1"/>
  <variable name="X(10,19,253)" index="166236" value="1"/>
  <variable name="X(10,26,804)" index="168035" value="1"/>
  <variable name="X(10,30,600)" index="169079" value="1.0000000000001084"/>
  <variable name="X(10,30,739)" index="169218" value="-1.0824674490095276e-13"/>
  <variable name="X(10,50,826)" index="170553" value="1"/>
  <variable name="X(11,4,359)" index="171334" value="1"/>
  <variable name="X(11,51,932)" index="173155" value="1"/>
  <variable name="X(12,14,375)" index="173846" value="1"/>
  <variable name="X(12,52,467)" index="175186" value="1"/>
  <variable name="X(13,14,761)" index="176728" value="1"/>
  <variable name="X(13,15,698)" index="177913" value="1"/>
  <variable name="X(13,16,447)" index="178910" value="1"/>
  <variable name="X(13,21,437)" index="180148" value="1"/>
  <variable name="X(13,23,476)" index="181435" value="1"/>
  <variable name="X(13,53,641)" index="182848" value="1"/>
  <variable name="X(14,12,467)" index="183922" value="1"/>
  <variable name="X(14,13,437)" index="185140" value="1"/>
  <variable name="X(14,15,431)" index="186382" value="1"/>
  <variable name="X(14,23,375)" index="187574" value="1"/>
  <variable name="X(14,54,761)" index="189208" value="1"/>
  <variable name="X(15,13,476)" index="190171" value="1"/>
  <variable name="X(15,14,467)" index="191410" value="1"/>
  <variable name="X(15,55,431)" index="192622" value="1"/>
  <variable name="X(16,10,804)" index="194243" value="1"/>
  <variable name="X(16,13,761)" index="195448" value="1"/>
  <variable name="X(16,30,447)" index="196382" value="1"/>
  <variable name="X(16,56,570)" index="197753" value="1"/>
  <variable name="X(17,5,558)" index="198989" value="1"/>
  <variable name="X(17,35,547)" index="200226" value="1"/>
  <variable name="X(17,57,1115)" index="202042" value="1"/>
  <variable name="X(18,5,570)" index="202745" value="1"/>
  <variable name="X(18,31,584)" index="204007" value="1"/>
  <variable name="X(18,58,765)" index="205436" value="1"/>
  <variable name="X(19,10,600)" index="206519" value="1.0000000000001084"/>
  <variable name="X(19,10,609)" index="206528" value="-1.0824674490095276e-13"/>
  <variable name="X(19,59,253)" index="207420" value="1"/>
  <variable name="X(20,4,621)" index="209036" value="1"/>
  <variable name="X(20,60,703)" index="210366" value="1"/>
  <variable name="X(21,61,437)" index="211348" value="1"/>
  <variable name="X(22,28,634)" index="212793" value="1.8040162006982452e-13"/>
  <variable name="X(22,28,641)" index="212800" value="1"/>
  <variable name="X(22,62,476)" index="213883" value="1"/>
  <variable name="X(23,13,641)" index="215296" value="1"/>
  <variable name="X(23,14,830)" index="216733" value="1"/>
  <variable name="X(23,24,807)" index="217958" value="1"/>
  <variable name="X(23,27,773)" index="219172" value="1"/>
  <variable name="X(23,28,476)" index="220123" value="1"/>
  <variable name="X(23,63,375)" index="221270" value="1"/>
  <variable name="X(24,6,790)" index="222933" value="1"/>
  <variable name="X(24,23,773)" index="224164" value="1"/>
  <variable name="X(24,30,807)" index="225446" value="1"/>
  <variable name="X(24,64,621)" index="226508" value="1"/>
  <variable name="X(25,26,727)" index="227862" value="1"/>
  <variable name="X(25,35,741)" index="229124" value="1"/>
  <variable name="X(25,65,804)" index="230435" value="1"/>
  <variable name="X(26,8,727)" index="231606" value="1"/>
  <variable name="X(26,9,765)" index="232892" value="1"/>
  <variable name="X(26,10,761)" index="234136" value="1"/>
  <variable name="X(26,25,804)" index="235427" value="1"/>
  <variable name="X(26,66,232)" index="236103" value="1"/>
  <variable name="X(27,23,807)" index="237926" value="1"/>
  <variable name="X(27,67,773)" index="239140" value="1"/>
  <variable name="X(28,22,476)" index="240091" value="1"/>
  <variable name="X(28,23,641)" index="241504" value="1"/>
  <variable name="X(28,29,634)" index="242745" value="1.0824674490095276e-13"/>
  <variable name="X(28,29,806)" index="242917" value="-1.0824674490095276e-13"/>
  <variable name="X(28,29,826)" index="242937" value="1"/>
  <variable name="X(28,68,774)" index="244133" value="1"/>
  <variable name="X(29,28,774)" index="245381" value="1"/>
  <variable name="X(29,30,826)" index="246681" value="1"/>
  <variable name="X(29,69,600)" index="247703" value="1.0000000000001084"/>
  <variable name="X(29,69,806)" index="247909" value="-1.0824674490095276e-13"/>
  <variable name="X(30,5,447)" index="248798" value="1"/>
  <variable name="X(30,10,826)" index="250425" value="1"/>
  <variable name="X(30,16,570)" index="251417" value="1"/>
  <variable name="X(30,24,773)" index="252868" value="1"/>
  <variable name="X(30,29,600)" index="253943" value="1"/>
  <variable name="X(30,70,807)" index="255398" value="1"/>
  <variable name="X(31,1,952)" index="256791" value="1"/>
  <variable name="X(31,4,932)" index="258019" value="1"/>
  <variable name="X(31,18,1232)" index="259567" value="1"/>
  <variable name="X(31,40,721)" index="260304" value="1"/>
  <variable name="X(31,71,103)" index="260934" value="1"/>
  <variable name="X(32,3,963)" index="263042" value="1"/>
  <variable name="X(32,5,967)" index="264294" value="1"/>
  <variable name="X(32,72,447)" index="265022" value="1"/>
  <variable name="X(33,3,1025)" index="266848" value="1"/>
  <variable name="X(33,35,1010)" index="268081" value="1"/>
  <variable name="X(33,73,603)" index="268922" value="1"/>
  <variable name="X(34,2,1032)" index="270599" value="1"/>
  <variable name="X(34,35,1035)" index="271850" value="1"/>
  <variable name="X(34,74,677)" index="272740" value="1"/>
  <variable name="X(35,1,236)" index="273547" value="1"/>
  <variable name="X(35,8,1035)" index="275594" value="1"/>
  <variable name="X(35,17,1010)" index="276817" value="1"/>
  <variable name="X(35,25,547)" index="277602" value="1"/>
  <variable name="X(35,33,741)" index="279044" value="1"/>
  <variable name="X(35,34,449)" index="280000" value="1"/>
  <variable name="X(35,75,1190)" index="281989" value="1"/>
  <variable name="X(36,3,1115)" index="283162" value="1"/>
  <variable name="X(36,37,1133)" index="284428" value="1"/>
  <variable name="X(36,76,1191)" index="285734" value="1"/>
  <variable name="X(37,3,1190)" index="286981" value="1"/>
  <variable name="X(37,36,1191)" index="288230" value="1"/>
  <variable name="X(37,38,1025)" index="289312" value="1"/>
  <variable name="X(37,77,1133)" index="290668" value="1"/>
  <variable name="X(38,37,1191)" index="291974" value="1"/>
  <variable name="X(38,78,1025)" index="293056" value="1"/>
  <variable name="X(39,3,1245)" index="294524" value="1"/>
  <variable name="X(39,40,1027)" index="295554" value="1"/>
  <variable name="X(39,79,558)" index="296333" value="1"/>
  <variable name="X(40,31,1232)" index="298255" value="1"/>
  <variable name="X(40,39,1245)" index="299516" value="1"/>
  <variable name="X(40,80,1027)" index="300546" value="1"/>
  <variable name="C(103,31)" index="301196" value="1"/>
  <variable name="C(232,8)" index="301652" value="1"/>
  <variable name="C(232,26)" index="301653" value="2"/>
  <variable name="C(236,1)" index="301667" value="1"/>
  <variable name="C(239,7)" index="301677" value="1"/>
  <variable name="C(239,5)" index="301678" value="2"/>
  <variable name="C(239,4)" index="301679" value="3"/>
  <variable name="C(253,10)" index="301736" value="1"/>
  <variable name="C(253,19)" index="301737" value="2"/>
  <variable name="C(359,4)" index="302169" value="1"/>
  <variable name="C(359,5)" index="302170" value="2"/>
  <variable name="C(359,9)" index="302171" value="3"/>
  <variable name="C(375,14)" index="302247" value="1"/>
  <variable name="C(375,23)" index="302248" value="2"/>
  <variable name="C(431,15)" index="302509" value="1"/>
  <variable name="C(437,13)" index="302537" value="1"/>
  <variable name="C(437,21)" index="302538" value="2"/>
  <variable name="C(447,16)" index="302577" value="1"/>
  <variable name="C(447,30)" index="302578" value="2"/>
  <variable name="C(447,5)" index="302579" value="3"/>
  <variable name="C(447,32)" index="302580" value="4"/>
  <variable name="C(449,9)" index="302592" value="1"/>
  <variable name="C(449,8)" index="302593" value="2"/>
  <variable name="C(449,35)" index="302594" value="3"/>
  <variable name="C(467,14)" index="302703" value="1"/>
  <variable name="C(467,12)" index="302704" value="2"/>
  <variable name="C(476,13)" index="302740" value="1"/>
  <variable name="C(476,23)" index="302741" value="2"/>
  <variable name="C(476,28)" index="302742" value="3"/>
  <variable name="C(476,22)" index="302743" value="4"/>
  <variable name="C(547,35)" index="303055" value="1"/>
  <variable name="C(558,5)" index="303096" value="1"/>
  <variable name="C(558,3)" index="303097" value="2"/>
  <variable name="C(558,39)" index="303098" value="3"/>
  <variable name="C(570,5)" index="303142" value="1"/>
  <variable name="C(570,30)" index="303143" value="2"/>
  <variable name="C(570,16)" index="303144" value="3"/>
  <variable name="C(600,10)" index="303264" value="1.0000000000001084"/>
  <variable name="C(600,30)" index="303265" value="2.0000000000002167"/>
  <variable name="C(600,29)" index="303266" value="3.0000000000003251"/>
  <variable name="C(603,33)" index="303280" value="1"/>
  <variable name="C(621,4)" index="303367" value="1"/>
  <variable name="C(621,6)" index="303368" value="2"/>
  <variable name="C(621,24)" index="303369" value="3"/>
  <variable name="C(634,28)" index="303430" value="1.8040162006982452e-13"/>
  <variable name="C(634,29)" index="303431" value="2.8864836497077728e-13"/>
  <variable name="C(634,30)" index="303432" value="2.8864836497077728e-13"/>
  <variable name="C(634,5)" index="303433" value="2.8864836497077728e-13"/>
  <variable name="C(635,1)" index="303440" value="1"/>
  <variable name="C(635,2)" index="303441" value="2"/>
  <variable name="C(641,28)" index="303472" value="1"/>
  <variable name="C(641,23)" index="303473" value="2"/>
  <variable name="C(641,13)" index="303474" value="3"/>
  <variable name="C(677,34)" index="303635" value="1"/>
  <variable name="C(703,4)" index="303745" value="1"/>
  <variable name="C(703,20)" index="303746" value="2"/>
  <variable name="C(721,31)" index="303821" value="1"/>
  <variable name="C(727,26)" index="303844" value="1"/>
  <variable name="C(727,8)" index="303845" value="2"/>
  <variable name="C(739,30)" index="303900" value="-1.0824674490095276e-13"/>
  <variable name="C(741,35)" index="303907" value="1"/>
  <variable name="C(761,10)" index="303986" value="1"/>
  <variable name="C(761,16)" index="303987" value="2"/>
  <variable name="C(761,13)" index="303988" value="3"/>
  <variable name="C(761,14)" index="303989" value="4"/>
  <variable name="C(765,9)" index="304003" value="1"/>
  <variable name="C(765,5)" index="304004" value="2"/>
  <variable name="C(765,18)" index="304005" value="3"/>
  <variable name="C(773,24)" index="304039" value="1"/>
  <variable name="C(773,23)" index="304040" value="2"/>
  <variable name="C(773,27)" index="304041" value="3"/>
  <variable name="C(774,28)" index="304046" value="1"/>
  <variable name="C(790,6)" index="304122" value="1"/>
  <variable name="C(790,5)" index="304123" value="2"/>
  <variable name="C(804,10)" index="304189" value="1"/>
  <variable name="C(804,26)" index="304190" value="2"/>
  <variable name="C(804,25)" index="304191" value="3"/>
  <variable name="C(806,29)" index="304201" value="-1.0824674490095274e-13"/>
  <variable name="C(807,23)" index="304203" value="1"/>
  <variable name="C(807,24)" index="304204" value="2"/>
  <variable name="C(807,30)" index="304205" value="3"/>
  <variable name="C(826,29)" index="304317" value="1"/>
  <variable name="C(826,30)" index="304318" value="2"/>
  <variable name="C(826,10)" index="304319" value="3"/>
  <variable name="C(932,4)" index="304751" value="1"/>
  <variable name="C(932,11)" index="304752" value="2"/>
  <variable name="C(952,1)" index="304853" value="1"/>
  <variable name="C(952,3)" index="304854" value="2"/>
  <variable name="C(963,3)" index="304893" value="1"/>
  <variable name="C(967,5)" index="304903" value="1"/>
  <variable name="C(967,7)" index="304904" value="2"/>
  <variable name="C(1010,35)" index="305087" value="1"/>
  <variable name="C(1025,3)" index="305146" value="1"/>
  <variable name="C(1025,37)" index="305147" value="2"/>
  <variable name="C(1025,38)" index="305148" value="3"/>
  <variable name="C(1027,40)" index="305155" value="1"/>
  <variable name="C(1032,2)" index="305171" value="1"/>
  <variable name="C(1032,1)" index="305172" value="2"/>
  <variable name="C(1032,5)" index="305173" value="3"/>
  <variable name="C(1032,6)" index="305174" value="4.0000000000000009"/>
  <variable name="C(1035,35)" index="305183" value="1"/>
  <variable name="C(1035,8)" index="305184" value="2"/>
  <variable name="C(1035,9)" index="305185" value="3"/>
  <variable name="C(1115,3)" index="305563" value="1"/>
  <variable name="C(1115,5)" index="305564" value="2"/>
  <variable name="C(1115,17)" index="305565" value="3"/>
  <variable name="C(1133,37)" index="305651" value="1"/>
  <variable name="C(1184,24)" index="305895" value="1.5587531265737198e-13"/>
  <variable name="C(1190,3)" index="305925" value="1"/>
  <variable name="C(1190,1)" index="305926" value="2"/>
  <variable name="C(1190,35)" index="305927" value="3"/>
  <variable name="C(1191,37)" index="305929" value="1"/>
  <variable name="C(1191,36)" index="305930" value="2"/>
  <variable name="C(1232,31)" index="306111" value="1"/>
  <variable name="C(1234,24)" index="306123" value="-1.5587531265737198e-13"/>
  <variable name="C(1245,39)" index="306173" value="1"/>
  <variable name="C(1245,3)" index="306174" value="2"/>
 </variables>
</CPLEXSolution>
